peakDumbCharging = 18500; 
Machine = anon_enum(16); 
machineSpeed = [3700,3700,3700,3700,3700,3700,3700,3700,3700,3700,3700,3700,3700,3700,3700,3700]; 
machineLoad = [3700,3700,3700,3700,3700,3700,3700,3700,3700,3700,3700,3700,3700,3700,3700,3700]; 
Car = anon_enum(25); 
demandCar = [19560,13760,11640,2400,5960,7000,7920,3080,5200,22840,8800,6520,12480,4680,5440,23120,8800,1640,12000,31960,12760,2680,6160,35760,25360]; 
arrivalCar = [75,72,71,70,67,64,64,64,63,61,60,59,57,52,50,49,48,47,46,44,42,41,40,35,34]; 
departureCar = [82,77,76,72,70,69,67,72,65,69,64,62,61,56,53,58,54,49,52,61,47,43,43,52,53]; 
